46 90 
61 30 
67 12 
2 25 
97 27 
1 26 
86 15 
93 63 
74 98 
19 81 
45 36 
36 91 
23 25 
65 97 
77 27 
28 24 
17 41 
6 85 
5 8 
62 2 
88 63 
81 26 
79 74 
42 5 
24 61 
38 69 
50 74 
12 73 
52 30 
71 81 
57 51 
57 75 
45 16 
12 50 
76 26 
53 64 
90 34 
43 21 
60 85 
78 85 
98 17 
6 48 
43 71 
22 47 
1 45 
29 10 
48 86 
37 93 
2 49 
44 79 
